DIMENSION: 20
EDGE_WEIGHT_TYPE: EXPLICIT
EDGE_WEIGHT_FORMAT: FULL_MATRIX
EDGE_WEIGHT_SECTION:
32767 16 1 32767 24 32767 5 32767 76 32767 15 32767 38 46 91 32767 32767 32767 32767 32 
16 32767 32767 32767 30 32767 32767 32767 82 32767 87 7 32767 32767 32767 7 65 1 80 32767 
1 32767 32767 32767 32767 32767 60 32767 32767 32767 32767 32767 32767 40 32767 32767 32767 32767 72 66 
32767 32767 32767 32767 84 32767 32767 13 32767 32767 32767 32767 32767 8 32767 32767 32767 50 32767 26 
24 30 32767 84 32767 32767 32767 12 32767 32767 32767 35 92 32767 94 25 32767 32767 32767 32767 
32767 32767 32767 32767 32767 32767 93 32767 32767 32767 32767 77 42 32767 32767 37 71 54 49 59 
5 32767 60 32767 32767 93 32767 55 89 32767 92 57 47 32767 32767 32767 58 1 32767 24 
32767 32767 32767 13 12 32767 55 32767 32767 32767 32767 32767 32767 32767 32767 32767 49 32767 32767 10 
76 82 32767 32767 32767 32767 89 32767 32767 32767 53 32767 6 32767 32767 32767 32767 32767 32767 48 
32767 32767 32767 32767 32767 32767 32767 32767 32767 32767 32767 23 64 71 32767 9 6 32767 70 32767 
15 87 32767 32767 32767 32767 92 32767 53 32767 32767 64 32767 32767 32767 32767 32767 32767 32767 76 
32767 7 32767 32767 35 77 57 32767 32767 23 64 32767 32767 96 52 32767 51 32767 21 11 
38 32767 32767 32767 92 42 47 32767 6 64 32767 32767 32767 80 32767 32767 38 87 32767 49 
46 32767 40 8 32767 32767 32767 32767 32767 71 32767 96 80 32767 32767 17 60 98 31 32767 
91 32767 32767 32767 94 32767 32767 32767 32767 32767 32767 52 32767 32767 32767 32767 64 32767 32767 32767 
32767 7 32767 32767 25 37 32767 32767 32767 9 32767 32767 32767 17 32767 32767 32767 57 38 99 
32767 65 32767 32767 32767 71 58 49 32767 6 32767 51 38 60 64 32767 32767 17 32767 32767 
32767 1 32767 50 32767 54 1 32767 32767 32767 32767 32767 87 98 32767 57 17 32767 88 32767 
32767 80 72 32767 32767 49 32767 32767 32767 70 32767 21 32767 31 32767 38 32767 88 32767 3 
32 32767 66 26 32767 59 24 10 48 32767 76 11 49 32767 32767 99 32767 32767 3 32767 
EOF